# Solution for model GasLib-40
# Objective value = 1.0515053641164116e+01
loadshed[innode_1] 0
loadshed[innode_2] 0
loadshed[innode_3] 0
loadshed[innode_4] 0
loadshed[innode_5] 0
loadshed[innode_6] 0
loadshed[innode_7] 0
loadshed[innode_8] 0
loadshed[source_1] -2.1283248009842493e-01
loadshed[source_2] -4.2716076014207793e-02
loadshed[source_3] 3.2206152445555380e-01
loadshed[sink_1] 0
loadshed[sink_2] 0
loadshed[sink_3] 0
loadshed[sink_4] 0
loadshed[sink_5] 0
loadshed[sink_6] 0
loadshed[sink_7] 0
loadshed[sink_8] 0
loadshed[sink_9] 0
loadshed[sink_10] 0
loadshed[sink_11] 0
loadshed[sink_12] 6.4295869398200955e-01
loadshed[sink_13] 0
loadshed[sink_14] 0
loadshed[sink_15] 0
loadshed[sink_16] 0
loadshed[sink_17] 0
loadshed[sink_18] 0
loadshed[sink_19] 0
loadshed[sink_20] 0
loadshed[sink_21] 0
loadshed[sink_22] 0
loadshed[sink_23] 0
loadshed[sink_24] 0
loadshed[sink_25] 0
loadshed[sink_26] 0
loadshed[sink_27] 0
loadshed[sink_28] 0
loadshed[sink_29] 0
flow[source_1,sink_3] 1.9173702367667113e+02
flow[innode_1,sink_16] 1.6354166666666970e+01
flow[innode_6,sink_13] 7.3036847516026233e+00
flow[sink_13,sink_14] -9.0504819150640436e+00
flow[sink_14,sink_10] -2.5404648581730726e+01
flow[sink_25,sink_26] 1.7641247379069873e+02
flow[sink_26,sink_9] 1.2405347637806639e+02
flow[sink_9,sink_18] 1.0769930971139972e+02
flow[sink_26,sink_4] 3.6004830745965670e+01
flow[sink_4,sink_20] -4.2030805901472604e+01
flow[sink_18,sink_6] 9.1345143044733049e+01
flow[sink_25,innode_8] -1.5902869034333474e+02
flow[sink_6,sink_7] 4.2282643044732595e+01
flow[sink_6,sink_22] 3.2708333333333641e+01
flow[sink_7,sink_24] 3.8547446358835892e+01
flow[sink_22,sink_1] 1.6354166666666970e+01
flow[sink_24,sink_21] 2.2193279692169220e+01
flow[sink_21,sink_12] 5.8391130255025532e+00
flow[sink_7,sink_5] -1.2618969980769947e+01
flow[sink_5,sink_17] -2.8973136647436490e+01
flow[sink_17,sink_4] -6.1681469980771681e+01
flow[sink_17,sink_8] 1.6354166666668334e+01
flow[sink_3,sink_23] 16.3541666666697
flow[sink_8,sink_20] 0
flow[sink_25,sink_20] 5.8384972568139290e+01
flow[sink_25,sink_15] -9.9426607433772674e+01
flow[sink_15,sink_29] -6.4345230746613268e+01
flow[sink_29,sink_28] 1.6354166666667879e+01
flow[sink_29,sink_2] 6.7789710020492748e+01
flow[sink_2,sink_15] 5.1435543353826084e+01
flow[sink_29,innode_7] -1.6484327410044057e+02
flow[innode_4,sink_19] 4.1046791933233358e+01
flow[sink_19,innode_3] 0
flow[innode_4,innode_5] 6.6128689981831329e+01
flow[sink_27,innode_5] -6.6128689981831329e+01
flow[sink_27,sink_19] 4.9774523315164664e+01
flow[sink_10,sink_11] 3.2708333333333641e+01
flow[sink_10,innode_2] -7.4467148581731180e+01
flow[sink_10,innode_3] 0
flow[innode_6,sink_25] -7.3036847516026233e+00
flow[sink_11,innode_1] 1.6354166666666970e+01
flow[sink_19,innode_2] 7.4467148581731180e+01
flow[source_3,innode_4] 1.0717548191506469e+02
flow[source_2,innode_7] 1.6484327410044057e+02
flow[sink_3,innode_8] 1.5902869034333474e+02
pressure[innode_1] 7.5262742201418149e+01
pressure[innode_2] 7.9350339870962770e+01
pressure[innode_3] 75.4144435090217
pressure[innode_4] 81.01325
pressure[innode_5] 8.0967763200053881e+01
pressure[innode_6] 7.4236906688100376e+01
pressure[innode_7] 81.01325
pressure[innode_8] 80.3723463760468
pressure[source_1] 81.01325
pressure[source_2] 81.01325
pressure[source_3] 81.01325
pressure[sink_1] 4.5950212101464757e+01
pressure[sink_2] 7.4887148330450458e+01
pressure[sink_3] 80.3723463760468
pressure[sink_4] 5.7234532394618057e+01
pressure[sink_5] 5.2718980743926004e+01
pressure[sink_6] 4.8051289711852128e+01
pressure[sink_7] 4.7470849809414794e+01
pressure[sink_8] 5.4260184804899595e+01
pressure[sink_9] 5.4387359025885743e+01
pressure[sink_10] 75.4144435090217
pressure[sink_11] 7.5262742201418149e+01
pressure[sink_12] 1.0132499999999998e+00
pressure[sink_13] 74.1966426946239
pressure[sink_14] 74.2128393029415
pressure[sink_15] 7.4719222617611379e+01
pressure[sink_16] 7.4241092366600469e+01
pressure[sink_17] 5.4877270000313217e+01
pressure[sink_18] 5.0490477001378693e+01
pressure[sink_19] 7.9350339870962770e+01
pressure[sink_20] 6.0318107748131347e+01
pressure[sink_21] 3.0911259903745112e+00
pressure[sink_22] 4.7013981243819764e+01
pressure[sink_23] 8.0207628364387020e+01
pressure[sink_24] 3.33689594294926
pressure[sink_25] 7.4236906688100376e+01
pressure[sink_26] 6.1812279760322028e+01
pressure[sink_27] 8.0419017265885117e+01
pressure[sink_28] 76.3090559169804
pressure[sink_29] 7.6604338190597574e+01
interdiction[source_1,sink_3] 0
interdiction[innode_1,sink_16] 0
interdiction[innode_6,sink_13] 0
interdiction[sink_13,sink_14] 0
interdiction[sink_14,sink_10] 0
interdiction[sink_25,sink_26] 0
interdiction[sink_26,sink_9] 0
interdiction[sink_9,sink_18] 0
interdiction[sink_26,sink_4] 0
interdiction[sink_4,sink_20] 0
interdiction[sink_18,sink_6] 0
interdiction[sink_25,innode_8] 0
interdiction[sink_6,sink_7] 0
interdiction[sink_6,sink_22] 0
interdiction[sink_7,sink_24] 0
interdiction[sink_22,sink_1] 0
interdiction[sink_24,sink_21] 0
interdiction[sink_21,sink_12] 0
interdiction[sink_7,sink_5] 0
interdiction[sink_5,sink_17] 0
interdiction[sink_17,sink_4] 0
interdiction[sink_17,sink_8] 0
interdiction[sink_3,sink_23] 0
interdiction[sink_8,sink_20] 1
interdiction[sink_25,sink_20] 0
interdiction[sink_25,sink_15] 0
interdiction[sink_15,sink_29] 0
interdiction[sink_29,sink_28] 0
interdiction[sink_29,sink_2] 0
interdiction[sink_2,sink_15] 0
interdiction[sink_29,innode_7] 0
interdiction[innode_4,sink_19] 0
interdiction[sink_19,innode_3] 1
interdiction[innode_4,innode_5] 0
interdiction[sink_27,innode_5] 0
interdiction[sink_27,sink_19] 0
interdiction[sink_10,sink_11] 0
interdiction[sink_10,innode_2] 0
interdiction[sink_10,innode_3] 0
interdiction[innode_6,sink_25] 0
interdiction[sink_11,innode_1] 0
interdiction[sink_19,innode_2] 0
interdiction[source_3,innode_4] 0
interdiction[source_2,innode_7] 0
interdiction[sink_3,innode_8] 0
WCcheckFlow[source_1,sink_3] 39
WCcheckFlow[innode_1,sink_16] 1
WCcheckFlow[innode_6,sink_13] 13
WCcheckFlow[sink_13,sink_14] 12
WCcheckFlow[sink_14,sink_10] 11
WCcheckFlow[sink_25,sink_26] 15
WCcheckFlow[sink_26,sink_9] 12
WCcheckFlow[sink_9,sink_18] 11
WCcheckFlow[sink_26,sink_4] 2
WCcheckFlow[sink_4,sink_20] 1
WCcheckFlow[sink_18,sink_6] 10
WCcheckFlow[sink_25,innode_8] -36
WCcheckFlow[sink_6,sink_7] 7
WCcheckFlow[sink_6,sink_22] 2
WCcheckFlow[sink_7,sink_24] 3
WCcheckFlow[sink_22,sink_1] 1
WCcheckFlow[sink_24,sink_21] 2
WCcheckFlow[sink_21,sink_12] 1
WCcheckFlow[sink_7,sink_5] 3
WCcheckFlow[sink_5,sink_17] 2
WCcheckFlow[sink_17,sink_4] 0
WCcheckFlow[sink_17,sink_8] 1
WCcheckFlow[sink_3,sink_23] 1
WCcheckFlow[sink_8,sink_20] 0
WCcheckFlow[sink_25,sink_20] 0
WCcheckFlow[sink_25,sink_15] 6
WCcheckFlow[sink_15,sink_29] 5
WCcheckFlow[sink_29,sink_28] 1
WCcheckFlow[sink_29,sink_2] 1
WCcheckFlow[sink_2,sink_15] 0
WCcheckFlow[sink_29,innode_7] 2
WCcheckFlow[innode_4,sink_19] -4
WCcheckFlow[sink_19,innode_3] 0
WCcheckFlow[innode_4,innode_5] 2
WCcheckFlow[sink_27,innode_5] -1
WCcheckFlow[sink_27,sink_19] 0
WCcheckFlow[sink_10,sink_11] 3
WCcheckFlow[sink_10,innode_2] 6
WCcheckFlow[sink_10,innode_3] 1
WCcheckFlow[innode_6,sink_25] -14
WCcheckFlow[sink_11,innode_1] 2
WCcheckFlow[sink_19,innode_2] -5
WCcheckFlow[source_3,innode_4] -1
WCcheckFlow[source_2,innode_7] -1
WCcheckFlow[sink_3,innode_8] 37
